30	100	100	100
27	100	100
37	100	100
9	100	100
6	100	100
31	100	100
33	100	100
14	100	100
12	100	100
33	100	100
27	100	100
11	100	100
4	100	100
8	100	100
21	100	100
3	100	100
37	100	100
21	100	100
45	100	100
13	100	100
25	100	100
28	100	100
26	100	100
29	100	100
37	100	100
39	100	100
28	100	100
42	100	100
44	100	100
48	100	100
21	100	100
